10894.0 1146327.0 
10927.0 1142475.0 
10947.0 1139224.0 
10905.0 1145010.0 
10944.0 1142226.0 
11058.0 1133846.0 
10960.0 1138344.0 
10941.0 1142347.0 
10907.0 1143750.0 
10918.0 1142550.0 
10984.0 1134338.0 
10965.0 1136821.0 
10937.0 1142448.0 
